75
[15,16,17,18,19,20,21,22,23,24,25,26,27,28,29,30,31,32,33,34,35,36,37,38,39,40,41,42,43,44,45,46,47,48,49,50,51,52]
[20,16,14,14,12,13,14,11,14,15,17,13,17,19,16,12,10,13,15,8,12,7,9,15,21,10,7,15,6,14,12,14,9,14,7,10,12,23]
